numFacilities=3;
numCustomers=4;
capacity=[100, 100, 500];
setupCost=[100.0, 100.0, 100.0];
demand=[50, 50, 75, 75];
distance=[|469.51890270786754, 470.93311627024065, 472.34732983261375, 677.4082963767125, 
|473.76154339498686, 475.1757569573599, 476.589970519733, 673.1656556895932, 
|1975.6563466352138, 1977.070560197587, 1978.48477375996, 828.7291475506337
 |];
